c Random generated cnf formula, satisfiable: true
p cnf 10 50
-9 -7 -5 0
5 -8 -4 0
5 -6 -7 0
3 8 5 0
-7 6 4 0
7 -6 10 0
-7 -4 -9 0
2 -10 9 0
-9 8 6 0
-1 7 -5 0
-7 -9 -5 0
8 -7 -5 0
-10 9 -7 0
-9 -8 4 0
-1 -4 -3 0
4 2 8 0
-9 -4 -7 0
-1 -4 6 0
-10 4 6 0
-2 -10 -6 0
-8 -1 -2 0
-4 9 -5 0
-9 -5 -6 0
8 3 -6 0
-6 3 7 0
5 8 -10 0
-7 1 4 0
4 7 -8 0
8 -6 -3 0
5 -10 2 0
-7 1 6 0
2 -6 -10 0
7 5 8 0
-10 -5 1 0
7 6 9 0
-2 3 1 0
-4 -2 5 0
-9 8 10 0
-8 9 1 0
1 -5 6 0
-7 -3 5 0
8 -3 -2 0
-6 10 1 0
7 1 6 0
1 9 8 0
-6 9 -2 0
1 3 9 0
-5 -3 4 0
8 4 10 0
-9 -2 4 0
